<?xml version = "1.0" encoding="UTF-8" standalone="yes"?>
<CPLEXSolution version="1.2">
 <header
   problemName="IloCplex"
   solutionName="p0"
   solutionIndex="-1"
   objectiveValue="0"
   solutionTypeValue="3"
   solutionTypeString="primal"
   solutionStatusValue="127"
   solutionStatusString="integer feasible solution"
   solutionMethodString="mip"
   primalFeasible="0"
   dualFeasible="0"
   writeLevel="3"/>
 <quality
   epInt="1.0000000000000001e-05"
   epRHS="9.9999999999999995e-07"
   maxIntInfeas="0"
   maxPrimalInfeas="0"
   maxX="656"
   maxSlack="556"/>
 <variables>
  <variable index="100" value="1"/>
  <variable index="181" value="1"/>
  <variable index="216" value="1"/>
  <variable index="350" value="1"/>
  <variable index="505" value="1"/>
  <variable index="588" value="1"/>
  <variable index="618" value="1"/>
  <variable index="795" value="1"/>
  <variable index="875" value="1"/>
  <variable index="985" value="1"/>
  <variable index="1090" value="1"/>
  <variable index="1129" value="1"/>
  <variable index="1233" value="1"/>
  <variable index="1341" value="1"/>
  <variable index="1449" value="1"/>
  <variable index="1606" value="1"/>
  <variable index="1623" value="1"/>
  <variable index="1751" value="1"/>
  <variable index="1814" value="1"/>
  <variable index="1982" value="1"/>
  <variable index="2108" value="1"/>
  <variable index="2196" value="1"/>
  <variable index="2225" value="1"/>
  <variable index="2391" value="1"/>
  <variable index="2456" value="1"/>
  <variable index="2580" value="1"/>
  <variable index="2612" value="1"/>
  <variable index="2748" value="1"/>
  <variable index="2870" value="1"/>
  <variable index="2945" value="1"/>
  <variable index="3058" value="1"/>
  <variable index="3168" value="1"/>
  <variable index="3302" value="1"/>
  <variable index="3353" value="1"/>
  <variable index="3426" value="1"/>
  <variable index="3594" value="1"/>
  <variable index="3636" value="1"/>
  <variable index="3765" value="1"/>
  <variable index="3904" value="1"/>
  <variable index="3924" value="1"/>
  <variable index="4010" value="1"/>
  <variable index="4169" value="1"/>
  <variable index="4272" value="1"/>
  <variable index="4367" value="1"/>
  <variable index="4455" value="1"/>
  <variable index="4530" value="1"/>
  <variable index="4640" value="1"/>
  <variable index="4809" value="1"/>
  <variable index="4899" value="1"/>
  <variable index="4946" value="1"/>
  <variable index="5043" value="1"/>
  <variable index="5115" value="1"/>
  <variable index="5222" value="1"/>
  <variable index="5384" value="1"/>
  <variable index="5442" value="1"/>
  <variable index="5593" value="1"/>
  <variable index="5663" value="1"/>
  <variable index="5713" value="1"/>
  <variable index="5889" value="1"/>
  <variable index="5911" value="1"/>
  <variable index="6034" value="1"/>
  <variable index="6192" value="1"/>
  <variable index="6232" value="1"/>
  <variable index="6337" value="1"/>
  <variable index="6435" value="1"/>
  <variable index="6597" value="1"/>
  <variable index="6627" value="1"/>
  <variable index="6759" value="1"/>
  <variable index="6820" value="1"/>
  <variable index="6931" value="1"/>
  <variable index="7079" value="1"/>
  <variable index="7187" value="1"/>
  <variable index="7283" value="1"/>
  <variable index="7371" value="1"/>
  <variable index="7417" value="1"/>
  <variable index="7552" value="1"/>
  <variable index="7639" value="1"/>
  <variable index="7760" value="1"/>
  <variable index="7819" value="1"/>
  <variable index="7954" value="1"/>
  <variable index="8098" value="1"/>
  <variable index="8147" value="1"/>
  <variable index="8238" value="1"/>
  <variable index="8373" value="1"/>
  <variable index="8421" value="1"/>
  <variable index="8544" value="1"/>
  <variable index="8703" value="1"/>
  <variable index="8786" value="1"/>
  <variable index="8907" value="1"/>
  <variable index="8977" value="1"/>
  <variable index="9057" value="1"/>
  <variable index="9162" value="1"/>
  <variable index="9266" value="1"/>
  <variable index="9328" value="1"/>
  <variable index="9461" value="1"/>
  <variable index="9574" value="1"/>
  <variable index="9701" value="1"/>
  <variable index="9776" value="1"/>
  <variable index="9878" value="1"/>
  <variable index="9964" value="1"/>
  <variable index="10020" value="656"/>
 </variables>
</CPLEXSolution>
